     Program PWSCF v.5.3.0 (svn rev. 11974) starts on  4Apr2016 at 14:54: 9

     Current dimensions of program PWSCF are:
     Max number of different atomic species (ntypx) = 10
     Max number of k-points (npk) =  40000
     Max angular momentum in pseudopotentials (lmaxx) =  3

     Subspace diagonalization in iterative solution of the eigenvalue problem:
     a serial algorithm will be used

     bravais-lattice index     =            0
     lattice parameter (alat)  =       7.2125  a.u.
     unit-cell volume          =     265.3020 (a.u.)^3
     number of atoms/cell      =            2
     number of atomic types    =            1
     number of electrons       =         8.00
     number of Kohn-Sham states=            4
     kinetic-energy cutoff     =      25.0000  Ry
     charge density cutoff     =     200.0000  Ry
     convergence threshold     =      1.0E-12
     mixing beta               =       0.7000
     number of iterations used =            8  plain     mixing
     Exchange-correlation      =  SLA  PW   PBE  PBE ( 1  4  3  4 0 0)

     celldm(1)=   7.212489  celldm(2)=   0.000000  celldm(3)=   0.000000
     celldm(4)=   0.000000  celldm(5)=   0.000000  celldm(6)=   0.000000

     crystal axes: (cart. coord. in units of alat)
               a(1) = (  -0.707107   0.000000   0.707107 )
               a(2) = (   0.000000   0.707107   0.707107 )
               a(3) = (  -0.707107   0.707107   0.000000 )

     reciprocal axes: (cart. coord. in units 2 pi/alat)
               b(1) = ( -0.707107 -0.707107  0.707107 )
               b(2) = (  0.707107  0.707107  0.707107 )
               b(3) = ( -0.707107  0.707107 -0.707107 )

     PseudoPot. # 1 for Si read from file:
     /home/junhao/espresso/espresso-5.3.0/pseudo/Si.pbe-n-van.UPF
     MD5 check sum: 8a97496598b7338af554a5de8957bfee
     Pseudo is Ultrasoft + core correction, Zval =  4.0
     Generated by new atomic code, or converted to UPF format
     Using radial grid of  899 points,  6 beta functions with:
                l(1) =   0
                l(2) =   0
                l(3) =   1
                l(4) =   1
                l(5) =   2
                l(6) =   2
     Q(r) pseudized with  8 coefficients,  rinner =    0.900   0.900   0.900
                                                       0.900   0.900

     atomic species   valence    mass     pseudopotential
        Si             4.00    28.00000     Si( 1.00)

     48 Sym. Ops., with inversion, found (24 have fractional translation)

   Cartesian axes

     site n.     atom                  positions (alat units)
         1           Si  tau(   1) = (   0.3535534   0.3535534   0.3535534  )
         2           Si  tau(   2) = (   0.0000000   0.0000000   0.0000000  )

     number of k points=    47
                       cart. coord. in units 2pi/alat
        k(    1) = (   0.0000000   0.0000000   0.0000000), wk =   0.0020000
        k(    2) = (  -0.0707107   0.0707107  -0.0707107), wk =   0.0160000
        k(    3) = (  -0.1414214   0.1414214  -0.1414214), wk =   0.0160000
        k(    4) = (  -0.2121320   0.2121320  -0.2121320), wk =   0.0160000
        k(    5) = (  -0.2828427   0.2828427  -0.2828427), wk =   0.0160000
        k(    6) = (   0.3535534  -0.3535534   0.3535534), wk =   0.0080000
        k(    7) = (   0.0000000   0.1414214   0.0000000), wk =   0.0120000
        k(    8) = (  -0.0707107   0.2121320  -0.0707107), wk =   0.0480000
        k(    9) = (  -0.1414214   0.2828427  -0.1414214), wk =   0.0480000
        k(   10) = (  -0.2121320   0.3535534  -0.2121320), wk =   0.0480000
        k(   11) = (   0.4242641  -0.2828427   0.4242641), wk =   0.0480000
        k(   12) = (   0.3535534  -0.2121320   0.3535534), wk =   0.0480000
        k(   13) = (   0.2828427  -0.1414214   0.2828427), wk =   0.0480000
        k(   14) = (   0.2121320  -0.0707107   0.2121320), wk =   0.0480000
        k(   15) = (   0.1414214   0.0000000   0.1414214), wk =   0.0240000
        k(   16) = (   0.0000000   0.2828427   0.0000000), wk =   0.0120000
        k(   17) = (  -0.0707107   0.3535534  -0.0707107), wk =   0.0480000
        k(   18) = (  -0.1414214   0.4242641  -0.1414214), wk =   0.0480000
        k(   19) = (   0.4949747  -0.2121320   0.4949747), wk =   0.0480000
        k(   20) = (   0.4242641  -0.1414214   0.4242641), wk =   0.0480000
        k(   21) = (   0.3535534  -0.0707107   0.3535534), wk =   0.0480000
        k(   22) = (   0.2828427   0.0000000   0.2828427), wk =   0.0240000
        k(   23) = (   0.0000000   0.4242641   0.0000000), wk =   0.0120000
        k(   24) = (  -0.0707107   0.4949747  -0.0707107), wk =   0.0480000
        k(   25) = (   0.5656854  -0.1414214   0.5656854), wk =   0.0480000
        k(   26) = (   0.4949747  -0.0707107   0.4949747), wk =   0.0480000
        k(   27) = (   0.4242641  -0.0000000   0.4242641), wk =   0.0240000
        k(   28) = (   0.0000000   0.5656854   0.0000000), wk =   0.0120000
        k(   29) = (   0.6363961  -0.0707107   0.6363961), wk =   0.0480000
        k(   30) = (   0.5656854   0.0000000   0.5656854), wk =   0.0240000
        k(   31) = (   0.0000000  -0.7071068   0.0000000), wk =   0.0060000
        k(   32) = (  -0.1414214   0.2828427   0.0000000), wk =   0.0480000
        k(   33) = (  -0.2121320   0.3535534  -0.0707107), wk =   0.0960000
        k(   34) = (   0.4242641  -0.2828427   0.5656854), wk =   0.0960000
        k(   35) = (   0.3535534  -0.2121320   0.4949747), wk =   0.0480000
        k(   36) = (  -0.1414214   0.4242641  -0.0000000), wk =   0.0480000
        k(   37) = (   0.4949747  -0.2121320   0.6363961), wk =   0.0960000
        k(   38) = (   0.4242641  -0.1414214   0.5656854), wk =   0.0960000
        k(   39) = (   0.3535534  -0.0707107   0.4949747), wk =   0.0960000
        k(   40) = (   0.2828427   0.0000000   0.4242641), wk =   0.0480000
        k(   41) = (   0.5656854  -0.1414214   0.7071068), wk =   0.0480000
        k(   42) = (   0.4949747  -0.0707107   0.6363961), wk =   0.0960000
        k(   43) = (   0.4242641  -0.0000000   0.5656854), wk =   0.0480000
        k(   44) = (  -0.1414214  -0.7071068   0.0000000), wk =   0.0240000
        k(   45) = (   0.4242641  -0.1414214   0.7071068), wk =   0.0480000
        k(   46) = (   0.3535534  -0.0707107   0.6363961), wk =   0.0480000
        k(   47) = (  -0.2828427  -0.7071068   0.0000000), wk =   0.0240000

     Largest allocated arrays     est. size (Mb)     dimensions
     Largest temporary arrays     est. size (Mb)     dimensions

     Initial potential from superposition of free atoms

     starting charge    7.99866, renormalised to    8.00000
     Starting wfc are    8 randomized atomic wfcs

     Self-consistent Calculation

     iteration #  1     ecut=    25.00 Ry     beta=0.70
     CG style diagonalization
     ethr =  1.00E-02,  avg # of iterations =  2.9

     Threshold (ethr) on eigenvalues was too large:
     Diagonalizing with lowered threshold

     CG style diagonalization
     ethr =  7.09E-04,  avg # of iterations =  2.0

     total energy              =     -19.18920609 Ry
     Harris-Foulkes estimate   =     -19.20349089 Ry
     estimated scf accuracy    <       0.05762277 Ry

[...]

     total energy              =     -19.19192975 Ry
     Harris-Foulkes estimate   =     -19.19192975 Ry
     estimated scf accuracy    <          1.9E-11 Ry

     iteration #  9     ecut=    25.00 Ry     beta=0.70
     CG style diagonalization
     ethr =  2.33E-13,  avg # of iterations =  4.1

     End of self-consistent calculation

          k = 0.0000 0.0000 0.0000 (   537 PWs)   bands (ev):

    -5.6989   6.3864   6.3864   6.3864

          k =-0.0707 0.0707-0.0707 (   549 PWs)   bands (ev):

[...]

          k = 0.3536-0.0707 0.6364 (   560 PWs)   bands (ev):

[...]

          k =-0.2828-0.7071 0.0000 (   550 PWs)   bands (ev):

    -1.3345  -1.3345   2.5378   2.5378

     highest occupied level (ev):     6.3864

!    total energy              =     -19.19192975 Ry
     Harris-Foulkes estimate   =     -19.19192975 Ry
     estimated scf accuracy    <          1.6E-13 Ry

     The total energy is the sum of the following terms:

     one-electron contribution =       5.25330342 Ry
     hartree contribution      =       1.10075113 Ry
     xc contribution           =      -8.64622569 Ry
     ewald contribution        =     -16.89975861 Ry

     convergence has been achieved in   9 iterations

     Writing output data file si.save

     General routines

     Parallel routines

   This run was terminated on:  14:54:11   4Apr2016

   JOB DONE.